c Generated map
c Size: 12 * 12, weights in range: 1 to 10, walls: True, with ratio 0.05
c dim 5 of 5
c
p sp 144 238
c graph contains 144 nodes and 238 arcs
c
a 1 13 10
a 13 1 10
a 1 2 4
a 2 1 4
a 2 14 1
a 14 2 1
a 2 3 2
a 3 2 2
a 3 15 5
a 15 3 5
a 3 4 4
a 4 3 4
a 4 16 3
a 16 4 3
a 6 18 10
a 18 6 10
a 6 7 9
a 7 6 9
a 7 19 7
a 19 7 7
a 7 8 6
a 8 7 6
a 8 20 4
a 20 8 4
a 8 9 6
a 9 8 6
a 9 21 6
a 21 9 6
a 9 10 5
a 10 9 5
a 10 22 9
a 22 10 9
a 10 11 4
a 11 10 4
a 11 23 10
a 23 11 10
a 11 12 7
a 12 11 7
a 12 24 6
a 24 12 6
a 13 25 8
a 25 13 8
a 13 14 6
a 14 13 6
a 14 26 10
a 26 14 10
a 14 15 9
a 15 14 9
a 15 27 5
a 27 15 5
a 15 16 5
a 16 15 5
a 16 28 6
a 28 16 6
a 16 17 1
a 17 16 1
a 17 29 4
a 29 17 4
a 17 18 8
a 18 17 8
a 18 19 6
a 19 18 6
a 19 31 4
a 31 19 4
a 19 20 3
a 20 19 3
a 20 32 5
a 32 20 5
a 20 21 9
a 21 20 9
a 21 33 7
a 33 21 7
a 21 22 6
a 22 21 6
a 22 34 3
a 34 22 3
a 22 23 1
a 23 22 1
a 23 35 7
a 35 23 7
a 23 24 9
a 24 23 9
a 24 36 4
a 36 24 4
a 25 37 3
a 37 25 3
a 25 26 10
a 26 25 10
a 26 38 5
a 38 26 5
a 26 27 7
a 27 26 7
a 27 39 5
a 39 27 5
a 27 28 7
a 28 27 7
a 28 40 2
a 40 28 2
a 28 29 7
a 29 28 7
a 29 41 6
a 41 29 6
a 31 43 9
a 43 31 9
a 31 32 2
a 32 31 2
a 32 44 1
a 44 32 1
a 32 33 5
a 33 32 5
a 33 45 5
a 45 33 5
a 33 34 9
a 34 33 9
a 34 46 1
a 46 34 1
a 34 35 5
a 35 34 5
a 35 47 9
a 47 35 9
a 35 36 5
a 36 35 5
a 36 48 7
a 48 36 7
a 37 49 10
a 49 37 10
a 37 38 9
a 38 37 9
a 38 50 8
a 50 38 8
a 38 39 4
a 39 38 4
a 39 51 7
a 51 39 7
a 39 40 7
a 40 39 7
a 40 52 2
a 52 40 2
a 40 41 5
a 41 40 5
a 41 53 7
a 53 41 7
a 41 42 1
a 42 41 1
a 42 54 10
a 54 42 10
a 42 43 6
a 43 42 6
a 43 55 6
a 55 43 6
a 43 44 10
a 44 43 10
a 44 56 6
a 56 44 6
a 44 45 4
a 45 44 4
a 45 57 4
a 57 45 4
a 45 46 6
a 46 45 6
a 46 58 2
a 58 46 2
a 46 47 1
a 47 46 1
a 47 59 7
a 59 47 7
a 47 48 3
a 48 47 3
a 49 61 2
a 61 49 2
a 49 50 2
a 50 49 2
a 50 62 9
a 62 50 9
a 50 51 1
a 51 50 1
a 51 52 2
a 52 51 2
a 52 64 4
a 64 52 4
a 52 53 5
a 53 52 5
a 53 65 3
a 65 53 3
a 53 54 4
a 54 53 4
a 54 66 8
a 66 54 8
a 54 55 9
a 55 54 9
a 55 67 10
a 67 55 10
a 55 56 8
a 56 55 8
a 56 68 4
a 68 56 4
a 56 57 7
a 57 56 7
a 57 69 5
a 69 57 5
a 57 58 7
a 58 57 7
a 58 59 4
a 59 58 4
a 59 71 1
a 71 59 1
a 61 73 10
a 73 61 10
a 61 62 5
a 62 61 5
a 62 74 1
a 74 62 1
a 64 76 4
a 76 64 4
a 64 65 1
a 65 64 1
a 65 77 1
a 77 65 1
a 65 66 3
a 66 65 3
a 66 78 8
a 78 66 8
a 66 67 7
a 67 66 7
a 67 79 8
a 79 67 8
a 67 68 3
a 68 67 3
a 68 80 5
a 80 68 5
a 68 69 10
a 69 68 10
a 69 81 3
a 81 69 3
a 71 72 7
a 72 71 7
a 72 84 8
a 84 72 8
a 73 85 9
a 85 73 9
a 73 74 8
a 74 73 8
a 74 86 4
a 86 74 4
a 74 75 1
a 75 74 1
a 75 87 4
a 87 75 4
a 75 76 4
a 76 75 4
a 76 88 8
a 88 76 8
a 76 77 1
a 77 76 1
a 77 89 9
a 89 77 9
a 77 78 8
a 78 77 8
a 78 90 10
a 90 78 10
a 78 79 4
a 79 78 4
a 79 91 8
a 91 79 8
a 79 80 8
a 80 79 8
a 80 92 7
a 92 80 7
a 80 81 7
a 81 80 7
a 81 93 9
a 93 81 9
a 81 82 7
a 82 81 7
a 82 94 5
a 94 82 5
a 84 96 2
a 96 84 2
a 85 97 6
a 97 85 6
a 85 86 8
a 86 85 8
a 86 98 1
a 98 86 1
a 86 87 2
a 87 86 2
a 87 99 2
a 99 87 2
a 87 88 6
a 88 87 6
a 88 100 5
a 100 88 5
a 88 89 3
a 89 88 3
a 89 101 5
a 101 89 5
a 89 90 10
a 90 89 10
a 90 102 3
a 102 90 3
a 90 91 6
a 91 90 6
a 91 92 6
a 92 91 6
a 92 104 5
a 104 92 5
a 92 93 2
a 93 92 2
a 93 105 5
a 105 93 5
a 93 94 5
a 94 93 5
a 94 106 3
a 106 94 3
a 94 95 10
a 95 94 10
a 95 107 3
a 107 95 3
a 95 96 8
a 96 95 8
a 96 108 6
a 108 96 6
a 97 109 6
a 109 97 6
a 97 98 6
a 98 97 6
a 98 110 8
a 110 98 8
a 98 99 5
a 99 98 5
a 99 111 7
a 111 99 7
a 99 100 4
a 100 99 4
a 100 112 10
a 112 100 10
a 100 101 8
a 101 100 8
a 101 113 2
a 113 101 2
a 101 102 4
a 102 101 4
a 102 114 2
a 114 102 2
a 104 116 9
a 116 104 9
a 104 105 4
a 105 104 4
a 105 117 3
a 117 105 3
a 105 106 10
a 106 105 10
a 106 118 9
a 118 106 9
a 106 107 8
a 107 106 8
a 107 119 2
a 119 107 2
a 107 108 6
a 108 107 6
a 108 120 9
a 120 108 9
a 109 121 7
a 121 109 7
a 109 110 10
a 110 109 10
a 110 122 10
a 122 110 10
a 110 111 5
a 111 110 5
a 111 123 6
a 123 111 6
a 111 112 7
a 112 111 7
a 112 124 3
a 124 112 3
a 112 113 5
a 113 112 5
a 113 125 1
a 125 113 1
a 113 114 4
a 114 113 4
a 114 126 7
a 126 114 7
a 114 115 1
a 115 114 1
a 115 127 6
a 127 115 6
a 115 116 10
a 116 115 10
a 116 128 5
a 128 116 5
a 116 117 1
a 117 116 1
a 117 129 3
a 129 117 3
a 117 118 2
a 118 117 2
a 118 130 5
a 130 118 5
a 118 119 5
a 119 118 5
a 119 131 10
a 131 119 10
a 119 120 10
a 120 119 10
a 120 132 4
a 132 120 4
a 121 133 9
a 133 121 9
a 121 122 1
a 122 121 1
a 122 134 10
a 134 122 10
a 122 123 10
a 123 122 10
a 123 135 1
a 135 123 1
a 123 124 8
a 124 123 8
a 124 136 6
a 136 124 6
a 124 125 1
a 125 124 1
a 125 137 8
a 137 125 8
a 125 126 1
a 126 125 1
a 126 138 6
a 138 126 6
a 126 127 1
a 127 126 1
a 127 139 2
a 139 127 2
a 127 128 2
a 128 127 2
a 128 140 1
a 140 128 1
a 128 129 1
a 129 128 1
a 129 141 10
a 141 129 10
a 129 130 9
a 130 129 9
a 130 142 1
a 142 130 1
a 130 131 7
a 131 130 7
a 131 143 5
a 143 131 5
a 131 132 8
a 132 131 8
a 132 144 8
a 144 132 8
a 133 134 4
a 134 133 4
a 134 135 7
a 135 134 7
a 135 136 3
a 136 135 3
a 136 137 4
a 137 136 4
a 137 138 4
a 138 137 4
a 138 139 10
a 139 138 10
a 139 140 7
a 140 139 7
a 140 141 6
a 141 140 6
a 141 142 9
a 142 141 9
a 142 143 3
a 143 142 3
a 143 144 6
a 144 143 6
